Instance Name : r210
Date : 2022-07-18
Solution
Route 1 : 95 59 92 98 14 42 15 2 73 72 75 23 67 39 21 12 76 79 29 78 81 9 51 32 90 63 10 70 20 66 35 34 3 68 80 77 50
Route 2 : 28 33 71 65 30 1 69 31 88 62 11 64 49 46 8 84 83 18 6 13 97 37 100 93 17 5 60 89
Route 3 : 27 52 7 82 19 36 47 48 45 61 16 86 38 44 91 85 99 96 94 53 40 87 43 57 41 22 74 56 4 55 25 24 54 26 58
